# 
# Keywords:
# 
energy  
# 
# Options:
# 
title
"Distance between Mg and O removed: 4.7083 Å"
end
cell
  29.47839554  29.47839554  29.47839554  90.00000000  90.00000000  90.00000000
cartesian region  1
  29.47839554  29.47839892  29.47839554  90.00000000  90.00000000  90.00000000
Mg    core  0.000000000  0.000000806  0.000000000  2.0000000  1.0000  0.0000
Mg    core  0.000000000  0.000000806  4.211199362  2.0000000  1.0000  0.0000
Mg    core  0.000000000  0.000000806  8.422398724  2.0000000  1.0000  0.0000
Mg    core  0.000000000  0.000000806  12.63359808  2.0000000  1.0000  0.0000
Mg    core  0.000000000  0.000000806  16.84479744  2.0000000  1.0000  0.0000
Mg    core  0.000000000  0.000000806  21.05599681  2.0000000  1.0000  0.0000
Mg    core  0.000000000  0.000000806  25.26719617  2.0000000  1.0000  0.0000
Mg    core  0.000000000  4.211200652  29.47839553  2.0000000  1.0000  0.0000
Mg    core  0.000000000  4.211200652  4.211199362  2.0000000  1.0000  0.0000
Mg    core  0.000000000  4.211200652  8.422398724  2.0000000  1.0000  0.0000
Mg    core  0.000000000  4.211200652  12.63359808  2.0000000  1.0000  0.0000
Mg    core  0.000000000  4.211200652  16.84479744  2.0000000  1.0000  0.0000
Mg    core  0.000000000  4.211200652  21.05599681  2.0000000  1.0000  0.0000
Mg    core  0.000000000  4.211200652  25.26719617  2.0000000  1.0000  0.0000
Mg    core  0.000000000  8.422400498  29.47839553  2.0000000  1.0000  0.0000
Mg    core  0.000000000  8.422400498  4.211199362  2.0000000  1.0000  0.0000
Mg    core  0.000000000  8.422400498  8.422398724  2.0000000  1.0000  0.0000
Mg    core  0.000000000  8.422400498  12.63359808  2.0000000  1.0000  0.0000
Mg    core  0.000000000  8.422400498  16.84479744  2.0000000  1.0000  0.0000
Mg    core  0.000000000  8.422400498  21.05599681  2.0000000  1.0000  0.0000
Mg    core  0.000000000  8.422400498  25.26719617  2.0000000  1.0000  0.0000
Mg    core  0.000000000  12.63360034  29.47839553  2.0000000  1.0000  0.0000
Mg    core  0.000000000  12.63360034  4.211199362  2.0000000  1.0000  0.0000
Mg    core  0.000000000  12.63360034  8.422398724  2.0000000  1.0000  0.0000
Mg    core  0.000000000  12.63360034  12.63359808  2.0000000  1.0000  0.0000
Mg    core  0.000000000  12.63360034  16.84479744  2.0000000  1.0000  0.0000
Mg    core  0.000000000  12.63360034  21.05599681  2.0000000  1.0000  0.0000
Mg    core  0.000000000  12.63360034  25.26719617  2.0000000  1.0000  0.0000
Mg    core  0.000000000  16.84480019  29.47839553  2.0000000  1.0000  0.0000
Mg    core  0.000000000  16.84480019  4.211199362  2.0000000  1.0000  0.0000
Mg    core  0.000000000  16.84480019  8.422398724  2.0000000  1.0000  0.0000
Mg    core  0.000000000  16.84480019  12.63359808  2.0000000  1.0000  0.0000
Mg    core  0.000000000  16.84480019  16.84479744  2.0000000  1.0000  0.0000
Mg    core  0.000000000  16.84480019  21.05599681  2.0000000  1.0000  0.0000
Mg    core  0.000000000  16.84480019  25.26719617  2.0000000  1.0000  0.0000
Mg    core  0.000000000  21.05600003  29.47839553  2.0000000  1.0000  0.0000
Mg    core  0.000000000  21.05600003  4.211199362  2.0000000  1.0000  0.0000
Mg    core  0.000000000  21.05600003  8.422398724  2.0000000  1.0000  0.0000
Mg    core  0.000000000  21.05600003  12.63359808  2.0000000  1.0000  0.0000
Mg    core  0.000000000  21.05600003  16.84479744  2.0000000  1.0000  0.0000
Mg    core  0.000000000  21.05600003  21.05599681  2.0000000  1.0000  0.0000
Mg    core  0.000000000  21.05600003  25.26719617  2.0000000  1.0000  0.0000
Mg    core  0.000000000  25.26719988  0.000000000  2.0000000  1.0000  0.0000
Mg    core  0.000000000  25.26719988  4.211199362  2.0000000  1.0000  0.0000
Mg    core  0.000000000  25.26719988  8.422398724  2.0000000  1.0000  0.0000
Mg    core  0.000000000  25.26719988  12.63359808  2.0000000  1.0000  0.0000
Mg    core  0.000000000  25.26719988  16.84479744  2.0000000  1.0000  0.0000
Mg    core  0.000000000  25.26719988  21.05599681  2.0000000  1.0000  0.0000
Mg    core  0.000000000  25.26719988  25.26719617  2.0000000  1.0000  0.0000
Mg    core  4.211199362  0.000000806  29.47839553  2.0000000  1.0000  0.0000
Mg    core  4.211199362  0.000000806  4.211199362  2.0000000  1.0000  0.0000
Mg    core  4.211199362  0.000000806  8.422398724  2.0000000  1.0000  0.0000
Mg    core  4.211199362  0.000000806  12.63359808  2.0000000  1.0000  0.0000
Mg    core  4.211199362  0.000000806  16.84479744  2.0000000  1.0000  0.0000
Mg    core  4.211199362  0.000000806  21.05599681  2.0000000  1.0000  0.0000
Mg    core  4.211199362  0.000000806  25.26719617  2.0000000  1.0000  0.0000
Mg    core  4.211199362  4.211200652  29.47839553  2.0000000  1.0000  0.0000
Mg    core  4.211199362  4.211200652  4.211199362  2.0000000  1.0000  0.0000
Mg    core  4.211199362  4.211200652  8.422398724  2.0000000  1.0000  0.0000
Mg    core  4.211199362  4.211200652  12.63359808  2.0000000  1.0000  0.0000
Mg    core  4.211199362  4.211200652  16.84479744  2.0000000  1.0000  0.0000
Mg    core  4.211199362  4.211200652  21.05599681  2.0000000  1.0000  0.0000
Mg    core  4.211199362  4.211200652  25.26719617  2.0000000  1.0000  0.0000
Mg    core  4.211199362  8.422400498  29.47839553  2.0000000  1.0000  0.0000
Mg    core  4.211199362  8.422400498  4.211199362  2.0000000  1.0000  0.0000
Mg    core  4.211199362  8.422400498  8.422398724  2.0000000  1.0000  0.0000
Mg    core  4.211199362  8.422400498  12.63359808  2.0000000  1.0000  0.0000
Mg    core  4.211199362  8.422400498  16.84479744  2.0000000  1.0000  0.0000
Mg    core  4.211199362  8.422400498  21.05599681  2.0000000  1.0000  0.0000
Mg    core  4.211199362  8.422400498  25.26719617  2.0000000  1.0000  0.0000
Mg    core  4.211199362  12.63360034  29.47839553  2.0000000  1.0000  0.0000
Mg    core  4.211199362  12.63360034  4.211199362  2.0000000  1.0000  0.0000
Mg    core  4.211199362  12.63360034  8.422398724  2.0000000  1.0000  0.0000
Mg    core  4.211199362  12.63360034  12.63359808  2.0000000  1.0000  0.0000
Mg    core  4.211199362  12.63360034  16.84479744  2.0000000  1.0000  0.0000
Mg    core  4.211199362  12.63360034  21.05599681  2.0000000  1.0000  0.0000
Mg    core  4.211199362  12.63360034  25.26719617  2.0000000  1.0000  0.0000
Mg    core  4.211199362  16.84480019  29.47839553  2.0000000  1.0000  0.0000
Mg    core  4.211199362  16.84480019  4.211199362  2.0000000  1.0000  0.0000
Mg    core  4.211199362  16.84480019  8.422398724  2.0000000  1.0000  0.0000
Mg    core  4.211199362  16.84480019  12.63359808  2.0000000  1.0000  0.0000
Mg    core  4.211199362  16.84480019  16.84479744  2.0000000  1.0000  0.0000
Mg    core  4.211199362  16.84480019  21.05599681  2.0000000  1.0000  0.0000
Mg    core  4.211199362  16.84480019  25.26719617  2.0000000  1.0000  0.0000
Mg    core  4.211199362  21.05600003  29.47839553  2.0000000  1.0000  0.0000
Mg    core  4.211199362  21.05600003  4.211199362  2.0000000  1.0000  0.0000
Mg    core  4.211199362  21.05600003  8.422398724  2.0000000  1.0000  0.0000
Mg    core  4.211199362  21.05600003  12.63359808  2.0000000  1.0000  0.0000
Mg    core  4.211199362  21.05600003  16.84479744  2.0000000  1.0000  0.0000
Mg    core  4.211199362  21.05600003  21.05599681  2.0000000  1.0000  0.0000
Mg    core  4.211199362  21.05600003  25.26719617  2.0000000  1.0000  0.0000
Mg    core  4.211199362  25.26719988  29.47839553  2.0000000  1.0000  0.0000
Mg    core  4.211199362  25.26719988  4.211199362  2.0000000  1.0000  0.0000
Mg    core  4.211199362  25.26719988  8.422398724  2.0000000  1.0000  0.0000
Mg    core  4.211199362  25.26719988  12.63359808  2.0000000  1.0000  0.0000
Mg    core  4.211199362  25.26719988  16.84479744  2.0000000  1.0000  0.0000
Mg    core  4.211199362  25.26719988  21.05599681  2.0000000  1.0000  0.0000
Mg    core  4.211199362  25.26719988  25.26719617  2.0000000  1.0000  0.0000
Mg    core  8.422398725  0.000000806  29.47839553  2.0000000  1.0000  0.0000
Mg    core  8.422398725  0.000000806  4.211199362  2.0000000  1.0000  0.0000
Mg    core  8.422398725  0.000000806  8.422398724  2.0000000  1.0000  0.0000
Mg    core  8.422398725  0.000000806  12.63359808  2.0000000  1.0000  0.0000
Mg    core  8.422398725  0.000000806  16.84479744  2.0000000  1.0000  0.0000
Mg    core  8.422398725  0.000000806  21.05599681  2.0000000  1.0000  0.0000
Mg    core  8.422398725  0.000000806  25.26719617  2.0000000  1.0000  0.0000
Mg    core  8.422398725  4.211200652  29.47839553  2.0000000  1.0000  0.0000
Mg    core  8.422398725  4.211200652  4.211199362  2.0000000  1.0000  0.0000
Mg    core  8.422398725  4.211200652  8.422398724  2.0000000  1.0000  0.0000
Mg    core  8.422398725  4.211200652  12.63359808  2.0000000  1.0000  0.0000
Mg    core  8.422398725  4.211200652  16.84479744  2.0000000  1.0000  0.0000
Mg    core  8.422398725  4.211200652  21.05599681  2.0000000  1.0000  0.0000
Mg    core  8.422398725  4.211200652  25.26719617  2.0000000  1.0000  0.0000
Mg    core  8.422398725  8.422400498  29.47839553  2.0000000  1.0000  0.0000
Mg    core  8.422398725  8.422400498  4.211199362  2.0000000  1.0000  0.0000
Mg    core  8.422398725  8.422400498  8.422398724  2.0000000  1.0000  0.0000
Mg    core  8.422398725  8.422400498  12.63359808  2.0000000  1.0000  0.0000
Mg    core  8.422398725  8.422400498  16.84479744  2.0000000  1.0000  0.0000
Mg    core  8.422398725  8.422400498  21.05599681  2.0000000  1.0000  0.0000
Mg    core  8.422398725  8.422400498  25.26719617  2.0000000  1.0000  0.0000
Mg    core  8.422398725  12.63360034  29.47839553  2.0000000  1.0000  0.0000
Mg    core  8.422398725  12.63360034  4.211199362  2.0000000  1.0000  0.0000
Mg    core  8.422398725  12.63360034  8.422398724  2.0000000  1.0000  0.0000
Mg    core  8.422398725  12.63360034  12.63359808  2.0000000  1.0000  0.0000
Mg    core  8.422398725  12.63360034  16.84479744  2.0000000  1.0000  0.0000
Mg    core  8.422398725  12.63360034  21.05599681  2.0000000  1.0000  0.0000
Mg    core  8.422398725  12.63360034  25.26719617  2.0000000  1.0000  0.0000
Mg    core  8.422398725  16.84480019  29.47839553  2.0000000  1.0000  0.0000
Mg    core  8.422398725  16.84480019  4.211199362  2.0000000  1.0000  0.0000
Mg    core  8.422398725  16.84480019  8.422398724  2.0000000  1.0000  0.0000
Mg    core  8.422398725  16.84480019  12.63359808  2.0000000  1.0000  0.0000
Mg    core  8.422398725  16.84480019  16.84479744  2.0000000  1.0000  0.0000
Mg    core  8.422398725  16.84480019  21.05599681  2.0000000  1.0000  0.0000
Mg    core  8.422398725  16.84480019  25.26719617  2.0000000  1.0000  0.0000
Mg    core  8.422398725  21.05600003  29.47839553  2.0000000  1.0000  0.0000
Mg    core  8.422398725  21.05600003  4.211199362  2.0000000  1.0000  0.0000
Mg    core  8.422398725  21.05600003  8.422398724  2.0000000  1.0000  0.0000
Mg    core  8.422398725  21.05600003  12.63359808  2.0000000  1.0000  0.0000
Mg    core  8.422398725  21.05600003  16.84479744  2.0000000  1.0000  0.0000
Mg    core  8.422398725  21.05600003  21.05599681  2.0000000  1.0000  0.0000
Mg    core  8.422398725  21.05600003  25.26719617  2.0000000  1.0000  0.0000
Mg    core  8.422398725  25.26719988  29.47839553  2.0000000  1.0000  0.0000
Mg    core  8.422398725  25.26719988  4.211199362  2.0000000  1.0000  0.0000
Mg    core  8.422398725  25.26719988  8.422398724  2.0000000  1.0000  0.0000
Mg    core  8.422398725  25.26719988  12.63359808  2.0000000  1.0000  0.0000
Mg    core  8.422398725  25.26719988  16.84479744  2.0000000  1.0000  0.0000
Mg    core  8.422398725  25.26719988  21.05599681  2.0000000  1.0000  0.0000
Mg    core  8.422398725  25.26719988  25.26719617  2.0000000  1.0000  0.0000
Mg    core  12.63359808  0.000000806  29.47839553  2.0000000  1.0000  0.0000
Mg    core  12.63359808  0.000000806  4.211199362  2.0000000  1.0000  0.0000
Mg    core  12.63359808  0.000000806  8.422398724  2.0000000  1.0000  0.0000
Mg    core  12.63359808  0.000000806  12.63359808  2.0000000  1.0000  0.0000
Mg    core  12.63359808  0.000000806  16.84479744  2.0000000  1.0000  0.0000
Mg    core  12.63359808  0.000000806  21.05599681  2.0000000  1.0000  0.0000
Mg    core  12.63359808  0.000000806  25.26719617  2.0000000  1.0000  0.0000
Mg    core  12.63359808  4.211200652  29.47839553  2.0000000  1.0000  0.0000
Mg    core  12.63359808  4.211200652  4.211199362  2.0000000  1.0000  0.0000
Mg    core  12.63359808  4.211200652  8.422398724  2.0000000  1.0000  0.0000
Mg    core  12.63359808  4.211200652  12.63359808  2.0000000  1.0000  0.0000
Mg    core  12.63359808  4.211200652  16.84479744  2.0000000  1.0000  0.0000
Mg    core  12.63359808  4.211200652  21.05599681  2.0000000  1.0000  0.0000
Mg    core  12.63359808  4.211200652  25.26719617  2.0000000  1.0000  0.0000
Mg    core  12.63359808  8.422400498  29.47839553  2.0000000  1.0000  0.0000
Mg    core  12.63359808  8.422400498  4.211199362  2.0000000  1.0000  0.0000
Mg    core  12.63359808  8.422400498  8.422398724  2.0000000  1.0000  0.0000
Mg    core  12.63359808  8.422400498  12.63359808  2.0000000  1.0000  0.0000
Mg    core  12.63359808  8.422400498  16.84479744  2.0000000  1.0000  0.0000
Mg    core  12.63359808  8.422400498  21.05599681  2.0000000  1.0000  0.0000
Mg    core  12.63359808  8.422400498  25.26719617  2.0000000  1.0000  0.0000
Mg    core  12.63359808  12.63360034  29.47839553  2.0000000  1.0000  0.0000
Mg    core  12.63359808  12.63360034  4.211199362  2.0000000  1.0000  0.0000
Mg    core  12.63359808  12.63360034  8.422398724  2.0000000  1.0000  0.0000
Mg    core  12.63359808  12.63360034  12.63359808  2.0000000  1.0000  0.0000
Mg    core  12.63359808  12.63360034  16.84479744  2.0000000  1.0000  0.0000
Mg    core  12.63359808  12.63360034  21.05599681  2.0000000  1.0000  0.0000
Mg    core  12.63359808  12.63360034  25.26719617  2.0000000  1.0000  0.0000
Mg    core  12.63359808  16.84480019  29.47839553  2.0000000  1.0000  0.0000
Mg    core  12.63359808  16.84480019  4.211199362  2.0000000  1.0000  0.0000
Mg    core  12.63359808  16.84480019  8.422398724  2.0000000  1.0000  0.0000
Mg    core  12.63359808  16.84480019  12.63359808  2.0000000  1.0000  0.0000
Mg    core  12.63359808  16.84480019  16.84479744  2.0000000  1.0000  0.0000
Mg    core  12.63359808  16.84480019  21.05599681  2.0000000  1.0000  0.0000
Mg    core  12.63359808  16.84480019  25.26719617  2.0000000  1.0000  0.0000
Mg    core  12.63359808  21.05600003  29.47839553  2.0000000  1.0000  0.0000
Mg    core  12.63359808  21.05600003  4.211199362  2.0000000  1.0000  0.0000
Mg    core  12.63359808  21.05600003  8.422398724  2.0000000  1.0000  0.0000
Mg    core  12.63359808  21.05600003  12.63359808  2.0000000  1.0000  0.0000
Mg    core  12.63359808  21.05600003  16.84479744  2.0000000  1.0000  0.0000
Mg    core  12.63359808  21.05600003  21.05599681  2.0000000  1.0000  0.0000
Mg    core  12.63359808  21.05600003  25.26719617  2.0000000  1.0000  0.0000
Mg    core  12.63359808  25.26719988  29.47839553  2.0000000  1.0000  0.0000
Mg    core  12.63359808  25.26719988  4.211199362  2.0000000  1.0000  0.0000
Mg    core  12.63359808  25.26719988  8.422398724  2.0000000  1.0000  0.0000
Mg    core  12.63359808  25.26719988  12.63359808  2.0000000  1.0000  0.0000
Mg    core  12.63359808  25.26719988  16.84479744  2.0000000  1.0000  0.0000
Mg    core  12.63359808  25.26719988  21.05599681  2.0000000  1.0000  0.0000
Mg    core  12.63359808  25.26719988  25.26719617  2.0000000  1.0000  0.0000
Mg    core  16.84479745  0.000000806  29.47839553  2.0000000  1.0000  0.0000
Mg    core  16.84479745  0.000000806  4.211199362  2.0000000  1.0000  0.0000
Mg    core  16.84479745  0.000000806  8.422398724  2.0000000  1.0000  0.0000
Mg    core  16.84479745  0.000000806  12.63359808  2.0000000  1.0000  0.0000
Mg    core  16.84479745  0.000000806  16.84479744  2.0000000  1.0000  0.0000
Mg    core  16.84479745  0.000000806  21.05599681  2.0000000  1.0000  0.0000
Mg    core  16.84479745  0.000000806  25.26719617  2.0000000  1.0000  0.0000
Mg    core  16.84479745  4.211200652  29.47839553  2.0000000  1.0000  0.0000
Mg    core  16.84479745  4.211200652  4.211199362  2.0000000  1.0000  0.0000
Mg    core  16.84479745  4.211200652  8.422398724  2.0000000  1.0000  0.0000
Mg    core  16.84479745  4.211200652  12.63359808  2.0000000  1.0000  0.0000
Mg    core  16.84479745  4.211200652  16.84479744  2.0000000  1.0000  0.0000
Mg    core  16.84479745  4.211200652  21.05599681  2.0000000  1.0000  0.0000
Mg    core  16.84479745  4.211200652  25.26719617  2.0000000  1.0000  0.0000
Mg    core  16.84479745  8.422400498  29.47839553  2.0000000  1.0000  0.0000
Mg    core  16.84479745  8.422400498  4.211199362  2.0000000  1.0000  0.0000
Mg    core  16.84479745  8.422400498  8.422398724  2.0000000  1.0000  0.0000
Mg    core  16.84479745  8.422400498  12.63359808  2.0000000  1.0000  0.0000
Mg    core  16.84479745  8.422400498  16.84479744  2.0000000  1.0000  0.0000
Mg    core  16.84479745  8.422400498  21.05599681  2.0000000  1.0000  0.0000
Mg    core  16.84479745  8.422400498  25.26719617  2.0000000  1.0000  0.0000
Mg    core  16.84479745  12.63360034  29.47839553  2.0000000  1.0000  0.0000
Mg    core  16.84479745  12.63360034  4.211199362  2.0000000  1.0000  0.0000
Mg    core  16.84479745  12.63360034  8.422398724  2.0000000  1.0000  0.0000
Mg    core  16.84479745  12.63360034  12.63359808  2.0000000  1.0000  0.0000
Mg    core  16.84479745  12.63360034  16.84479744  2.0000000  1.0000  0.0000
Mg    core  16.84479745  12.63360034  21.05599681  2.0000000  1.0000  0.0000
Mg    core  16.84479745  12.63360034  25.26719617  2.0000000  1.0000  0.0000
Mg    core  16.84479745  16.84480019  29.47839553  2.0000000  1.0000  0.0000
Mg    core  16.84479745  16.84480019  4.211199362  2.0000000  1.0000  0.0000
Mg    core  16.84479745  16.84480019  8.422398724  2.0000000  1.0000  0.0000
Mg    core  16.84479745  16.84480019  12.63359808  2.0000000  1.0000  0.0000
Mg    core  16.84479745  16.84480019  16.84479744  2.0000000  1.0000  0.0000
Mg    core  16.84479745  16.84480019  21.05599681  2.0000000  1.0000  0.0000
Mg    core  16.84479745  16.84480019  25.26719617  2.0000000  1.0000  0.0000
Mg    core  16.84479745  21.05600003  29.47839553  2.0000000  1.0000  0.0000
Mg    core  16.84479745  21.05600003  4.211199362  2.0000000  1.0000  0.0000
Mg    core  16.84479745  21.05600003  8.422398724  2.0000000  1.0000  0.0000
Mg    core  16.84479745  21.05600003  12.63359808  2.0000000  1.0000  0.0000
Mg    core  16.84479745  21.05600003  16.84479744  2.0000000  1.0000  0.0000
Mg    core  16.84479745  21.05600003  21.05599681  2.0000000  1.0000  0.0000
Mg    core  16.84479745  21.05600003  25.26719617  2.0000000  1.0000  0.0000
Mg    core  16.84479745  25.26719988  0.000000000  2.0000000  1.0000  0.0000
Mg    core  16.84479745  25.26719988  4.211199362  2.0000000  1.0000  0.0000
Mg    core  16.84479745  25.26719988  8.422398724  2.0000000  1.0000  0.0000
Mg    core  16.84479745  25.26719988  12.63359808  2.0000000  1.0000  0.0000
Mg    core  16.84479745  25.26719988  16.84479744  2.0000000  1.0000  0.0000
Mg    core  16.84479745  25.26719988  21.05599681  2.0000000  1.0000  0.0000
Mg    core  16.84479745  25.26719988  25.26719617  2.0000000  1.0000  0.0000
Mg    core  21.05599681  0.000000806  0.000000000  2.0000000  1.0000  0.0000
Mg    core  21.05599681  0.000000806  4.211199362  2.0000000  1.0000  0.0000
Mg    core  21.05599681  0.000000806  8.422398724  2.0000000  1.0000  0.0000
Mg    core  21.05599681  0.000000806  12.63359808  2.0000000  1.0000  0.0000
Mg    core  21.05599681  0.000000806  16.84479744  2.0000000  1.0000  0.0000
Mg    core  21.05599681  0.000000806  21.05599681  2.0000000  1.0000  0.0000
Mg    core  21.05599681  0.000000806  25.26719617  2.0000000  1.0000  0.0000
Mg    core  21.05599681  4.211200652  0.000000000  2.0000000  1.0000  0.0000
Mg    core  21.05599681  4.211200652  4.211199362  2.0000000  1.0000  0.0000
Mg    core  21.05599681  4.211200652  8.422398724  2.0000000  1.0000  0.0000
Mg    core  21.05599681  4.211200652  12.63359808  2.0000000  1.0000  0.0000
Mg    core  21.05599681  4.211200652  16.84479744  2.0000000  1.0000  0.0000
Mg    core  21.05599681  4.211200652  21.05599681  2.0000000  1.0000  0.0000
Mg    core  21.05599681  4.211200652  25.26719617  2.0000000  1.0000  0.0000
Mg    core  21.05599681  8.422400498  29.47839553  2.0000000  1.0000  0.0000
Mg    core  21.05599681  8.422400498  4.211199362  2.0000000  1.0000  0.0000
Mg    core  21.05599681  8.422400498  8.422398724  2.0000000  1.0000  0.0000
Mg    core  21.05599681  8.422400498  12.63359808  2.0000000  1.0000  0.0000
Mg    core  21.05599681  8.422400498  16.84479744  2.0000000  1.0000  0.0000
Mg    core  21.05599681  8.422400498  21.05599681  2.0000000  1.0000  0.0000
Mg    core  21.05599681  8.422400498  25.26719617  2.0000000  1.0000  0.0000
Mg    core  21.05599681  12.63360034  29.47839553  2.0000000  1.0000  0.0000
Mg    core  21.05599681  12.63360034  4.211199362  2.0000000  1.0000  0.0000
Mg    core  21.05599681  12.63360034  8.422398724  2.0000000  1.0000  0.0000
Mg    core  21.05599681  12.63360034  12.63359808  2.0000000  1.0000  0.0000
Mg    core  21.05599681  12.63360034  16.84479744  2.0000000  1.0000  0.0000
Mg    core  21.05599681  12.63360034  21.05599681  2.0000000  1.0000  0.0000
Mg    core  21.05599681  12.63360034  25.26719617  2.0000000  1.0000  0.0000
Mg    core  21.05599681  16.84480019  29.47839553  2.0000000  1.0000  0.0000
Mg    core  21.05599681  16.84480019  4.211199362  2.0000000  1.0000  0.0000
Mg    core  21.05599681  16.84480019  8.422398724  2.0000000  1.0000  0.0000
Mg    core  21.05599681  16.84480019  12.63359808  2.0000000  1.0000  0.0000
Mg    core  21.05599681  16.84480019  16.84479744  2.0000000  1.0000  0.0000
Mg    core  21.05599681  16.84480019  21.05599681  2.0000000  1.0000  0.0000
Mg    core  21.05599681  16.84480019  25.26719617  2.0000000  1.0000  0.0000
Mg    core  21.05599681  21.05600003  29.47839553  2.0000000  1.0000  0.0000
Mg    core  21.05599681  21.05600003  4.211199362  2.0000000  1.0000  0.0000
Mg    core  21.05599681  21.05600003  8.422398724  2.0000000  1.0000  0.0000
Mg    core  21.05599681  21.05600003  12.63359808  2.0000000  1.0000  0.0000
Mg    core  21.05599681  21.05600003  16.84479744  2.0000000  1.0000  0.0000
Mg    core  21.05599681  21.05600003  21.05599681  2.0000000  1.0000  0.0000
Mg    core  21.05599681  21.05600003  25.26719617  2.0000000  1.0000  0.0000
Mg    core  21.05599681  25.26719988  0.000000000  2.0000000  1.0000  0.0000
Mg    core  21.05599681  25.26719988  4.211199362  2.0000000  1.0000  0.0000
Mg    core  21.05599681  25.26719988  8.422398724  2.0000000  1.0000  0.0000
Mg    core  21.05599681  25.26719988  12.63359808  2.0000000  1.0000  0.0000
Mg    core  21.05599681  25.26719988  16.84479744  2.0000000  1.0000  0.0000
Mg    core  21.05599681  25.26719988  21.05599681  2.0000000  1.0000  0.0000
Mg    core  21.05599681  25.26719988  25.26719617  2.0000000  1.0000  0.0000
Mg    core  25.26719617  0.000000806  0.000000000  2.0000000  1.0000  0.0000
Mg    core  25.26719617  0.000000806  4.211199362  2.0000000  1.0000  0.0000
Mg    core  25.26719617  0.000000806  8.422398724  2.0000000  1.0000  0.0000
Mg    core  25.26719617  0.000000806  12.63359808  2.0000000  1.0000  0.0000
Mg    core  25.26719617  0.000000806  16.84479744  2.0000000  1.0000  0.0000
Mg    core  25.26719617  0.000000806  21.05599681  2.0000000  1.0000  0.0000
Mg    core  25.26719617  0.000000806  25.26719617  2.0000000  1.0000  0.0000
Mg    core  25.26719617  4.211200652  0.000000000  2.0000000  1.0000  0.0000
Mg    core  25.26719617  4.211200652  4.211199362  2.0000000  1.0000  0.0000
Mg    core  25.26719617  4.211200652  8.422398724  2.0000000  1.0000  0.0000
Mg    core  25.26719617  4.211200652  12.63359808  2.0000000  1.0000  0.0000
Mg    core  25.26719617  4.211200652  16.84479744  2.0000000  1.0000  0.0000
Mg    core  25.26719617  4.211200652  21.05599681  2.0000000  1.0000  0.0000
Mg    core  25.26719617  4.211200652  25.26719617  2.0000000  1.0000  0.0000
Mg    core  25.26719617  8.422400498  29.47839553  2.0000000  1.0000  0.0000
Mg    core  25.26719617  8.422400498  4.211199362  2.0000000  1.0000  0.0000
Mg    core  25.26719617  8.422400498  8.422398724  2.0000000  1.0000  0.0000
Mg    core  25.26719617  8.422400498  12.63359808  2.0000000  1.0000  0.0000
Mg    core  25.26719617  8.422400498  16.84479744  2.0000000  1.0000  0.0000
Mg    core  25.26719617  8.422400498  21.05599681  2.0000000  1.0000  0.0000
Mg    core  25.26719617  8.422400498  25.26719617  2.0000000  1.0000  0.0000
Mg    core  25.26719617  12.63360034  29.47839553  2.0000000  1.0000  0.0000
Mg    core  25.26719617  12.63360034  4.211199362  2.0000000  1.0000  0.0000
Mg    core  25.26719617  12.63360034  8.422398724  2.0000000  1.0000  0.0000
Mg    core  25.26719617  12.63360034  12.63359808  2.0000000  1.0000  0.0000
Mg    core  25.26719617  12.63360034  16.84479744  2.0000000  1.0000  0.0000
Mg    core  25.26719617  12.63360034  21.05599681  2.0000000  1.0000  0.0000
Mg    core  25.26719617  12.63360034  25.26719617  2.0000000  1.0000  0.0000
Mg    core  25.26719617  16.84480019  29.47839553  2.0000000  1.0000  0.0000
Mg    core  25.26719617  16.84480019  4.211199362  2.0000000  1.0000  0.0000
Mg    core  25.26719617  16.84480019  8.422398724  2.0000000  1.0000  0.0000
Mg    core  25.26719617  16.84480019  12.63359808  2.0000000  1.0000  0.0000
Mg    core  25.26719617  16.84480019  16.84479744  2.0000000  1.0000  0.0000
Mg    core  25.26719617  16.84480019  21.05599681  2.0000000  1.0000  0.0000
Mg    core  25.26719617  16.84480019  25.26719617  2.0000000  1.0000  0.0000
Mg    core  25.26719617  21.05600003  29.47839553  2.0000000  1.0000  0.0000
Mg    core  25.26719617  21.05600003  4.211199362  2.0000000  1.0000  0.0000
Mg    core  25.26719617  21.05600003  8.422398724  2.0000000  1.0000  0.0000
Mg    core  25.26719617  21.05600003  12.63359808  2.0000000  1.0000  0.0000
Mg    core  25.26719617  21.05600003  16.84479744  2.0000000  1.0000  0.0000
Mg    core  25.26719617  21.05600003  21.05599681  2.0000000  1.0000  0.0000
Mg    core  25.26719617  21.05600003  25.26719617  2.0000000  1.0000  0.0000
Mg    core  25.26719617  25.26719988  0.000000000  2.0000000  1.0000  0.0000
Mg    core  25.26719617  25.26719988  4.211199362  2.0000000  1.0000  0.0000
Mg    core  25.26719617  25.26719988  8.422398724  2.0000000  1.0000  0.0000
Mg    core  25.26719617  25.26719988  12.63359808  2.0000000  1.0000  0.0000
Mg    core  25.26719617  25.26719988  16.84479744  2.0000000  1.0000  0.0000
Mg    core  25.26719617  25.26719988  21.05599681  2.0000000  1.0000  0.0000
Mg    core  25.26719617  25.26719988  25.26719617  2.0000000  1.0000  0.0000
Mg    core  2.105599681  2.105600127  29.47839553  2.0000000  1.0000  0.0000
Mg    core  2.105599681  2.105600127  4.211199362  2.0000000  1.0000  0.0000
Mg    core  2.105599681  2.105600127  8.422398724  2.0000000  1.0000  0.0000
Mg    core  2.105599681  2.105600127  12.63359808  2.0000000  1.0000  0.0000
Mg    core  2.105599681  2.105600127  16.84479744  2.0000000  1.0000  0.0000
Mg    core  2.105599681  2.105600127  21.05599681  2.0000000  1.0000  0.0000
Mg    core  2.105599681  2.105600127  25.26719617  2.0000000  1.0000  0.0000
Mg    core  2.105599681  6.316799973  29.47839553  2.0000000  1.0000  0.0000
Mg    core  2.105599681  6.316799973  4.211199362  2.0000000  1.0000  0.0000
Mg    core  2.105599681  6.316799973  8.422398724  2.0000000  1.0000  0.0000
Mg    core  2.105599681  6.316799973  12.63359808  2.0000000  1.0000  0.0000
Mg    core  2.105599681  6.316799973  16.84479744  2.0000000  1.0000  0.0000
Mg    core  2.105599681  6.316799973  21.05599681  2.0000000  1.0000  0.0000
Mg    core  2.105599681  6.316799973  25.26719617  2.0000000  1.0000  0.0000
Mg    core  2.105599681  10.52799981  29.47839553  2.0000000  1.0000  0.0000
Mg    core  2.105599681  10.52799981  4.211199362  2.0000000  1.0000  0.0000
Mg    core  2.105599681  10.52799981  8.422398724  2.0000000  1.0000  0.0000
Mg    core  2.105599681  10.52799981  12.63359808  2.0000000  1.0000  0.0000
Mg    core  2.105599681  10.52799981  16.84479744  2.0000000  1.0000  0.0000
Mg    core  2.105599681  10.52799981  21.05599681  2.0000000  1.0000  0.0000
Mg    core  2.105599681  10.52799981  25.26719617  2.0000000  1.0000  0.0000
Mg    core  2.105599681  14.73919966  29.47839553  2.0000000  1.0000  0.0000
Mg    core  2.105599681  14.73919966  4.211199362  2.0000000  1.0000  0.0000
Mg    core  2.105599681  14.73919966  8.422398724  2.0000000  1.0000  0.0000
Mg    core  2.105599681  14.73919966  12.63359808  2.0000000  1.0000  0.0000
Mg    core  2.105599681  14.73919966  16.84479744  2.0000000  1.0000  0.0000
Mg    core  2.105599681  14.73919966  21.05599681  2.0000000  1.0000  0.0000
Mg    core  2.105599681  14.73919966  25.26719617  2.0000000  1.0000  0.0000
Mg    core  2.105599681  18.95039951  29.47839553  2.0000000  1.0000  0.0000
Mg    core  2.105599681  18.95039951  4.211199362  2.0000000  1.0000  0.0000
Mg    core  2.105599681  18.95039951  8.422398724  2.0000000  1.0000  0.0000
Mg    core  2.105599681  18.95039951  12.63359808  2.0000000  1.0000  0.0000
Mg    core  2.105599681  18.95039951  16.84479744  2.0000000  1.0000  0.0000
Mg    core  2.105599681  18.95039951  21.05599681  2.0000000  1.0000  0.0000
Mg    core  2.105599681  18.95039951  25.26719617  2.0000000  1.0000  0.0000
Mg    core  2.105599681  23.16159935  29.47839553  2.0000000  1.0000  0.0000
Mg    core  2.105599681  23.16159935  4.211199362  2.0000000  1.0000  0.0000
Mg    core  2.105599681  23.16159935  8.422398724  2.0000000  1.0000  0.0000
Mg    core  2.105599681  23.16159935  12.63359808  2.0000000  1.0000  0.0000
Mg    core  2.105599681  23.16159935  16.84479744  2.0000000  1.0000  0.0000
Mg    core  2.105599681  23.16159935  21.05599681  2.0000000  1.0000  0.0000
Mg    core  2.105599681  23.16159935  25.26719617  2.0000000  1.0000  0.0000